Nb of jobs, Nb of Machines, Time seed, Machine seed, Upper bound, Lower bound
5,10,-1,-1,-1,-1
Times
79,33,8,14,74,81,17,85,38,37
70,77,27,17,13,75,27,19,38,8
5,5,81,2,80,81,61,9,41,87
35,59,43,7,95,58,66,50,25,91
34,78,2,83,21,65,61,81,11,27
Machines
5,10,4,2,1,6,9,8,3,7
7,4,3,5,2,9,8,6,10,1
10,8,2,6,9,3,1,7,5,4
7,3,9,5,8,1,6,10,2,4
8,3,7,9,10,5,2,1,4,6
